(set-logic QF_S)
(declare-fun var0 () String)
(assert (RegexIn var0 (RegexConcat (RegexUnion (RegexPlus (Str2Reg "0")) (RegexPlus (Str2Reg "11"))) (RegexConcat (RegexStar (RegexUnion (Str2Reg "2") (Str2Reg "3"))) (RegexConcat (RegexUnion (RegexStar (Str2Reg "444")) (RegexStar (Str2Reg "5"))) (RegexConcat (RegexUnion (RegexStar (Str2Reg "66")) (RegexStar (Str2Reg "7"))) (RegexConcat (RegexStar (RegexStar (Str2Reg "888"))) (RegexConcat (RegexPlus (RegexUnion (Str2Reg "999") (Str2Reg "aaa"))) (RegexConcat (RegexPlus (RegexPlus (Str2Reg "b"))) (RegexConcat (RegexPlus (RegexStar (Str2Reg "ccc"))) (RegexConcat (RegexUnion (RegexPlus (Str2Reg "ddd")) (RegexPlus (Str2Reg "eee"))) (RegexConcat (RegexPlus (RegexPlus (Str2Reg "fff"))) (RegexConcat (RegexUnion (RegexPlus (Str2Reg "g")) (RegexPlus (Str2Reg "h"))) (RegexConcat (RegexUnion (RegexStar (Str2Reg "iii")) (RegexStar (Str2Reg "j"))) (RegexConcat (RegexUnion (RegexStar (Str2Reg "kk")) (RegexStar (Str2Reg "ll"))) (RegexConcat (RegexUnion (RegexPlus (Str2Reg "mmm")) (RegexPlus (Str2Reg "n"))) (RegexConcat (RegexPlus (RegexPlus (Str2Reg "ooo"))) (RegexConcat (RegexPlus (RegexUnion (Str2Reg "p") (Str2Reg "qqq"))) (RegexConcat (RegexStar (RegexStar (Str2Reg "rr"))) (RegexConcat (RegexPlus (RegexStar (Str2Reg "sss"))) (RegexConcat (RegexStar (RegexStar (Str2Reg "ttt"))) (RegexConcat (RegexPlus (RegexPlus (Str2Reg "u"))) (RegexConcat (RegexStar (RegexStar (Str2Reg "vvv"))) (RegexConcat (RegexUnion (RegexUnion (Str2Reg "w") (Str2Reg "x")) (RegexUnion (Str2Reg "yyy") (Str2Reg "zz"))) (RegexConcat (RegexStar (RegexPlus (Str2Reg "A"))) (RegexConcat (RegexStar (RegexUnion (Str2Reg "BB") (Str2Reg "C"))) (RegexConcat (RegexStar (RegexUnion (Str2Reg "D") (Str2Reg "EE"))) (RegexConcat (RegexPlus (RegexUnion (Str2Reg "FF") (Str2Reg "G"))) (RegexConcat (RegexUnion (RegexUnion (Str2Reg "HHH") (Str2Reg "III")) (RegexUnion (Str2Reg "JJ") (Str2Reg "KKK"))) (RegexConcat (RegexUnion (RegexPlus (Str2Reg "LLL")) (RegexPlus (Str2Reg "MM"))) (RegexConcat (RegexPlus (RegexStar (Str2Reg "NNN"))) (RegexConcat (RegexPlus (RegexUnion (Str2Reg "OOO") (Str2Reg "P"))) (RegexConcat (RegexUnion (RegexUnion (Str2Reg "QQ") (Str2Reg "RRR")) (RegexUnion (Str2Reg "S") (Str2Reg "T"))) (RegexConcat (RegexStar (RegexStar (Str2Reg "UUU"))) (RegexConcat (RegexStar (RegexPlus (Str2Reg "VV"))) (RegexConcat (RegexUnion (RegexPlus (Str2Reg "WW")) (RegexPlus (Str2Reg "X"))) (RegexConcat (RegexPlus (RegexStar (Str2Reg "YY"))) (RegexConcat (RegexStar (RegexStar (Str2Reg "Z"))) (RegexConcat (RegexStar (RegexUnion (Str2Reg "!!!") (Str2Reg "\""))) (RegexConcat (RegexUnion (RegexPlus (Str2Reg "###")) (RegexPlus (Str2Reg "$"))) (RegexConcat (RegexPlus (RegexUnion (Str2Reg "%") (Str2Reg "&"))) (RegexConcat (RegexStar (RegexUnion (Str2Reg "'''") (Str2Reg "((("))) (RegexConcat (RegexStar (RegexUnion (Str2Reg "))") (Str2Reg "**"))) (RegexConcat (RegexPlus (RegexStar (Str2Reg "++"))) (RegexConcat (RegexUnion (RegexPlus (Str2Reg ",,,")) (RegexPlus (Str2Reg "---"))) (RegexConcat (RegexPlus (RegexStar (Str2Reg ".."))) (RegexConcat (RegexStar (RegexUnion (Str2Reg "//") (Str2Reg "::"))) (RegexConcat (RegexStar (RegexPlus (Str2Reg ";;"))) (RegexConcat (RegexStar (RegexPlus (Str2Reg "<<<"))) (RegexConcat (RegexUnion (RegexPlus (Str2Reg "=")) (RegexPlus (Str2Reg ">"))) (RegexConcat (RegexPlus (RegexUnion (Str2Reg "??") (Str2Reg "@"))) (RegexConcat (RegexUnion (RegexUnion (Str2Reg "[[") (Str2Reg "\\")) (RegexUnion (Str2Reg "]") (Str2Reg "^^"))) (RegexConcat (RegexPlus (RegexStar (Str2Reg "___"))) (RegexConcat (RegexPlus (RegexStar (Str2Reg "```"))) (RegexConcat (RegexStar (RegexStar (Str2Reg "{{"))) (RegexConcat (RegexPlus (RegexPlus (Str2Reg "|"))) (RegexConcat (RegexUnion (RegexStar (Str2Reg "}}")) (RegexStar (Str2Reg "~~"))) (RegexConcat (RegexUnion (RegexPlus (Str2Reg "00")) (RegexPlus (Str2Reg "111"))) (RegexConcat (RegexUnion (RegexStar (Str2Reg "22")) (RegexStar (Str2Reg "333"))) (RegexConcat (RegexPlus (RegexStar (Str2Reg "4"))) (RegexConcat (RegexStar (RegexUnion (Str2Reg "5") (Str2Reg "6"))) (RegexConcat (RegexUnion (RegexUnion (Str2Reg "777") (Str2Reg "888")) (RegexUnion (Str2Reg "9") (Str2Reg "aa"))) (RegexConcat (RegexUnion (RegexPlus (Str2Reg "b")) (RegexPlus (Str2Reg "ccc"))) (RegexConcat (RegexUnion (RegexStar (Str2Reg "d")) (RegexStar (Str2Reg "eee"))) (RegexConcat (RegexStar (RegexPlus (Str2Reg "ff"))) (RegexConcat (RegexStar (RegexUnion (Str2Reg "ggg") (Str2Reg "h"))) (RegexConcat (RegexPlus (RegexStar (Str2Reg "iii"))) (RegexConcat (RegexUnion (RegexStar (Str2Reg "jj")) (RegexStar (Str2Reg "kk"))) (RegexConcat (RegexPlus (RegexStar (Str2Reg "l"))) (RegexConcat (RegexUnion (RegexUnion (Str2Reg "mmm") (Str2Reg "n")) (RegexUnion (Str2Reg "ooo") (Str2Reg "pp"))) (RegexConcat (RegexStar (RegexUnion (Str2Reg "qqq") (Str2Reg "rr"))) (RegexConcat (RegexPlus (RegexPlus (Str2Reg "ss"))) (RegexConcat (RegexStar (RegexUnion (Str2Reg "ttt") (Str2Reg "u"))) (RegexConcat (RegexPlus (RegexUnion (Str2Reg "vvv") (Str2Reg "www"))) (RegexConcat (RegexUnion (RegexStar (Str2Reg "xxx")) (RegexStar (Str2Reg "yyy"))) (RegexConcat (RegexUnion (RegexPlus (Str2Reg "z")) (RegexPlus (Str2Reg "A"))) (RegexConcat (RegexStar (RegexPlus (Str2Reg "BBB"))) (RegexConcat (RegexUnion (RegexUnion (Str2Reg "CCC") (Str2Reg "DD")) (RegexUnion (Str2Reg "EE") (Str2Reg "FF"))) (RegexConcat (RegexUnion (RegexUnion (Str2Reg "G") (Str2Reg "HH")) (RegexUnion (Str2Reg "I") (Str2Reg "JJ"))) (RegexConcat (RegexUnion (RegexPlus (Str2Reg "KKK")) (RegexPlus (Str2Reg "LLL"))) (RegexConcat (RegexStar (RegexStar (Str2Reg "MM"))) (RegexConcat (RegexStar (RegexUnion (Str2Reg "NN") (Str2Reg "OOO"))) (RegexConcat (RegexStar (RegexStar (Str2Reg "PP"))) (RegexConcat (RegexUnion (RegexPlus (Str2Reg "QQQ")) (RegexPlus (Str2Reg "R"))) (RegexConcat (RegexPlus (RegexUnion (Str2Reg "S") (Str2Reg "T"))) (RegexConcat (RegexUnion (RegexPlus (Str2Reg "UU")) (RegexPlus (Str2Reg "V"))) (RegexConcat (RegexPlus (RegexUnion (Str2Reg "W") (Str2Reg "XX"))) (RegexConcat (RegexPlus (RegexStar (Str2Reg "YY"))) (RegexConcat (RegexPlus (RegexStar (Str2Reg "ZZ"))) (RegexConcat (RegexUnion (RegexUnion (Str2Reg "!") (Str2Reg "\"")) (RegexUnion (Str2Reg "###") (Str2Reg "$"))) (RegexConcat (RegexPlus (RegexPlus (Str2Reg "%%"))) (RegexConcat (RegexUnion (RegexStar (Str2Reg "&")) (RegexStar (Str2Reg "'"))) (RegexConcat (RegexPlus (RegexStar (Str2Reg "((("))) (RegexConcat (RegexStar (RegexStar (Str2Reg ")))"))) (RegexConcat (RegexPlus (RegexUnion (Str2Reg "**") (Str2Reg "+"))) (RegexConcat (RegexStar (RegexPlus (Str2Reg ",,,"))) (RegexConcat (RegexPlus (RegexUnion (Str2Reg "--") (Str2Reg "."))) (RegexConcat (RegexPlus (RegexUnion (Str2Reg "/") (Str2Reg ":"))) (RegexConcat (RegexPlus (RegexUnion (Str2Reg ";") (Str2Reg "<<<"))) (RegexConcat (RegexStar (RegexUnion (Str2Reg "==") (Str2Reg ">"))) (RegexConcat (RegexPlus (RegexUnion (Str2Reg "???") (Str2Reg "@@"))) (RegexConcat (RegexUnion (RegexUnion (Str2Reg "[") (Str2Reg "\\\\")) (RegexUnion (Str2Reg "]]") (Str2Reg "^^"))) (RegexConcat (RegexStar (RegexStar (Str2Reg "___"))) (RegexConcat (RegexStar (RegexPlus (Str2Reg "`"))) (RegexConcat (RegexUnion (RegexStar (Str2Reg "{")) (RegexStar (Str2Reg "||"))) (RegexConcat (RegexPlus (RegexUnion (Str2Reg "}}") (Str2Reg "~~~"))) (RegexConcat (RegexUnion (RegexPlus (Str2Reg "0")) (RegexPlus (Str2Reg "1"))) (RegexConcat (RegexStar (RegexPlus (Str2Reg "22"))) (RegexConcat (RegexPlus (RegexPlus (Str2Reg "33"))) (RegexConcat (RegexUnion (RegexPlus (Str2Reg "4")) (RegexPlus (Str2Reg "555"))) (RegexConcat (RegexStar (RegexUnion (Str2Reg "66") (Str2Reg "777"))) (RegexConcat (RegexStar (RegexStar (Str2Reg "888"))) (RegexConcat (RegexPlus (RegexUnion (Str2Reg "999") (Str2Reg "a"))) (RegexConcat (RegexStar (RegexPlus (Str2Reg "bb"))) (RegexConcat (RegexStar (RegexPlus (Str2Reg "c"))) (RegexConcat (RegexUnion (RegexPlus (Str2Reg "d")) (RegexPlus (Str2Reg "ee"))) (RegexConcat (RegexStar (RegexPlus (Str2Reg "f"))) (RegexConcat (RegexPlus (RegexPlus (Str2Reg "gg"))) (RegexConcat (RegexStar (RegexPlus (Str2Reg "hhh"))) (RegexConcat (RegexUnion (RegexUnion (Str2Reg "iii") (Str2Reg "jjj")) (RegexUnion (Str2Reg "kkk") (Str2Reg "ll"))) (RegexConcat (RegexStar (RegexUnion (Str2Reg "mmm") (Str2Reg "nnn"))) (RegexConcat (RegexUnion (RegexPlus (Str2Reg "ooo")) (RegexPlus (Str2Reg "p"))) (RegexConcat (RegexStar (RegexPlus (Str2Reg "qq"))) (RegexConcat (RegexUnion (RegexUnion (Str2Reg "r") (Str2Reg "sss")) (RegexUnion (Str2Reg "tt") (Str2Reg "uuu"))) (RegexConcat (RegexStar (RegexStar (Str2Reg "vv"))) (RegexConcat (RegexPlus (RegexUnion (Str2Reg "ww") (Str2Reg "xxx"))) (RegexConcat (RegexUnion (RegexStar (Str2Reg "yyy")) (RegexStar (Str2Reg "zz"))) (RegexConcat (RegexStar (RegexStar (Str2Reg "AA"))) (RegexConcat (RegexStar (RegexPlus (Str2Reg "B"))) (RegexConcat (RegexStar (RegexUnion (Str2Reg "CC") (Str2Reg "D"))) (RegexConcat (RegexPlus (RegexPlus (Str2Reg "EE"))) (RegexConcat (RegexPlus (RegexPlus (Str2Reg "FFF"))) (RegexConcat (RegexStar (RegexStar (Str2Reg "GGG"))) (RegexConcat (RegexStar (RegexStar (Str2Reg "HHH"))) (RegexConcat (RegexPlus (RegexStar (Str2Reg "I"))) (RegexConcat (RegexStar (RegexStar (Str2Reg "JJ"))) (RegexConcat (RegexStar (RegexStar (Str2Reg "K"))) (RegexConcat (RegexPlus (RegexPlus (Str2Reg "LL"))) (RegexConcat (RegexPlus (RegexStar (Str2Reg "M"))) (RegexConcat (RegexStar (RegexStar (Str2Reg "N"))) (RegexConcat (RegexUnion (RegexPlus (Str2Reg "OO")) (RegexPlus (Str2Reg "PP"))) (RegexConcat (RegexUnion (RegexUnion (Str2Reg "QQQ") (Str2Reg "R")) (RegexUnion (Str2Reg "S") (Str2Reg "TTT"))) (RegexConcat (RegexStar (RegexUnion (Str2Reg "UUU") (Str2Reg "V"))) (RegexConcat (RegexPlus (RegexUnion (Str2Reg "W") (Str2Reg "XXX"))) (RegexConcat (RegexStar (RegexStar (Str2Reg "YY"))) (RegexConcat (RegexUnion (RegexPlus (Str2Reg "ZZ")) (RegexPlus (Str2Reg "!"))) (RegexConcat (RegexPlus (RegexStar (Str2Reg "\""))) (RegexConcat (RegexPlus (RegexPlus (Str2Reg "###"))) (RegexConcat (RegexStar (RegexPlus (Str2Reg "$$"))) (RegexConcat (RegexStar (RegexStar (Str2Reg "%"))) (RegexConcat (RegexUnion (RegexUnion (Str2Reg "&&") (Str2Reg "''")) (RegexUnion (Str2Reg "(((") (Str2Reg ")))"))) (RegexConcat (RegexStar (RegexUnion (Str2Reg "***") (Str2Reg "+"))) (RegexConcat (RegexUnion (RegexPlus (Str2Reg ",")) (RegexPlus (Str2Reg "-"))) (RegexConcat (RegexPlus (RegexPlus (Str2Reg ".."))) (RegexConcat (RegexUnion (RegexUnion (Str2Reg "///") (Str2Reg ":")) (RegexUnion (Str2Reg ";") (Str2Reg "<<"))) (RegexConcat (RegexPlus (RegexUnion (Str2Reg "=") (Str2Reg ">>>"))) (RegexStar (RegexPlus (Str2Reg "?")))))))))))))))))))))))))))))))))))))))))))))))))))))))))))))))))))))))))))))))))))))))))))))))))))))))))))))))))))))))))))))))))))))))))))))))))))))))))))))))
(check-sat)